num_offers = 40;
num_halls = 10;
start=[29,14,2,77,34,2,60,4,48,5,44,79,57,92,26,4,11,81,22,16,6,33,21,40,34,19,75,53,19,49,8,44,5,75,64,25,6,26,62,23];
end=[92,38,69,78,81,34,79,35,91,29,61,89,98,95,27,88,58,95,76,28,32,64,65,53,78,51,93,85,93,52,30,75,71,82,78,60,42,93,79,78];
price=[1096,2437,2063,115,4650,1198,582,499,1687,763,379,269,3428,208,58,5658,2046,1104,1266,818,1787,999,4439,419,3446,971,390,2442,1709,344,1780,2646,6119,656,283,3235,856,3613,995,2524];
requirement=[440,685,356,706,529,791,729,948,416,508,510,562,779,452,337,526,635,748,245,614,602,938,450,360,540,201,325,950,241,416,963,300,201,358,220,447,403,583,630,502];
capacity=[257,317,886,915,662,869,303,905,778,730];
